(set-logic QF_S)
(declare-fun var0 () Int)
(declare-fun var1 () String)
(declare-fun var2 () Int)
(declare-fun var3 () String)
(declare-fun var4 () Int)
(declare-fun var5 () Int)
(declare-fun var6 () String)
(declare-fun var7 () String)
(assert (str.suffixof (str.substr "=nD#e""T>G" var0 66) (str.at var1 var2)))
(assert (str.in.re (str.substr var3 var4 126) (re.* re.allchar)))
(assert (>= var5 var4))
(assert (<= (str.indexof var6 var7 var0) (str.indexof var1 var6 var0)))
(check-sat)